GLPSOL--GLPK LP/MIP Solver 5.0
Parameter(s) specified in the command line:
 --cpxlp --first inputs/new_tr/order/triang7_3_up_right_input.lp -o solutions/new_tr/triang7_3_up_right_input.lp
Reading problem data from 'inputs/new_tr/order/triang7_3_up_right_input.lp'...
inputs/new_tr/order/triang7_3_up_right_input.lp:4307: warning: lower bound of variable 'm_27_27' redefined
inputs/new_tr/order/triang7_3_up_right_input.lp:4307: warning: upper bound of variable 'm_27_27' redefined
3991 rows, 1597 columns, 11607 non-zeros
1597 integer variables, 1288 of which are binary
5875 lines were read
GLPK Integer Optimizer 5.0
3991 rows, 1597 columns, 11607 non-zeros
1597 integer variables, 1288 of which are binary
Preprocessing...
182 hidden packing inequaliti(es) were detected
22 hidden covering inequaliti(es) were detected
392 constraint coefficient(s) were reduced
2268 rows, 842 columns, 6148 non-zeros
842 integer variables, 814 of which are binary
Scaling...
 A: min|aij| =  1.000e+00  max|aij| =  9.600e+01  ratio =  9.600e+01
GM: min|aij| =  4.387e-01  max|aij| =  2.280e+00  ratio =  5.196e+00
EQ: min|aij| =  1.925e-01  max|aij| =  1.000e+00  ratio =  5.196e+00
2N: min|aij| =  1.250e-01  max|aij| =  1.438e+00  ratio =  1.150e+01
Constructing initial basis...
Size of triangular part is 2072
Solving LP relaxation...
GLPK Simplex Optimizer 5.0
2268 rows, 842 columns, 6148 non-zeros
      0: obj =   2.260000000e+02 inf =   2.795e+02 (161)
    430: obj =   3.563585598e+02 inf =   6.271e-16 (0) 3
*   708: obj =   2.976734694e+02 inf =   5.503e-14 (0) 2
OPTIMAL LP SOLUTION FOUND
Integer optimization begins...
Long-step dual simplex will be used
+   708: mip =     not found yet >=              -inf        (1; 0)
+  2469: >>>>>   3.650000000e+02 >=   2.980000000e+02  18.4% (38; 1)
+ 12096: >>>>>   3.550000000e+02 >=   3.090000000e+02  13.0% (121; 46)
+ 52901: >>>>>   3.380000000e+02 >=   3.180000000e+02   5.9% (218; 215)
+ 61865: >>>>>   3.360000000e+02 >=   3.180000000e+02   5.4% (284; 478)
+112429: mip =   3.360000000e+02 >=   3.180000000e+02   5.4% (612; 1526)
+156109: mip =   3.360000000e+02 >=   3.180000000e+02   5.4% (905; 3063)
+205355: mip =   3.360000000e+02 >=   3.180000000e+02   5.4% (1199; 4079)
+247907: mip =   3.360000000e+02 >=   3.180000000e+02   5.4% (1492; 5604)
+286383: mip =   3.360000000e+02 >=   3.180000000e+02   5.4% (1696; 7295)
+332457: mip =   3.360000000e+02 >=   3.180000000e+02   5.4% (2019; 8522)
+378855: mip =   3.360000000e+02 >=   3.180000000e+02   5.4% (2277; 9698)
+422298: mip =   3.360000000e+02 >=   3.180000000e+02   5.4% (2595; 10946)
+469771: mip =   3.360000000e+02 >=   3.180000000e+02   5.4% (2869; 12139)
+516057: mip =   3.360000000e+02 >=   3.180000000e+02   5.4% (3155; 13275)
Time used: 60.0 secs.  Memory used: 34.1 Mb.
+563186: mip =   3.360000000e+02 >=   3.180000000e+02   5.4% (3439; 14171)
+603270: mip =   3.360000000e+02 >=   3.180000000e+02   5.4% (3739; 15615)
+647285: mip =   3.360000000e+02 >=   3.180000000e+02   5.4% (3953; 16762)
+693194: mip =   3.360000000e+02 >=   3.180000000e+02   5.4% (4262; 17723)
+732972: mip =   3.360000000e+02 >=   3.180000000e+02   5.4% (4515; 19153)
+777688: mip =   3.360000000e+02 >=   3.180000000e+02   5.4% (4798; 20140)
+814592: mip =   3.360000000e+02 >=   3.180000000e+02   5.4% (5071; 21550)
+856173: mip =   3.360000000e+02 >=   3.180000000e+02   5.4% (5271; 22625)
+900220: mip =   3.360000000e+02 >=   3.180000000e+02   5.4% (5562; 23533)
+940849: mip =   3.360000000e+02 >=   3.180000000e+02   5.4% (5780; 25293)
+983118: mip =   3.360000000e+02 >=   3.180000000e+02   5.4% (6032; 26623)
+1030538: mip =   3.360000000e+02 >=   3.180000000e+02   5.4% (6311; 27558)
Time used: 120.0 secs.  Memory used: 64.6 Mb.
+1071876: mip =   3.360000000e+02 >=   3.180000000e+02   5.4% (6605; 28842)
+1111957: mip =   3.360000000e+02 >=   3.180000000e+02   5.4% (6764; 30496)
+1150571: mip =   3.360000000e+02 >=   3.180000000e+02   5.4% (6950; 32004)
+1186793: mip =   3.360000000e+02 >=   3.180000000e+02   5.4% (7082; 33754)
+1227317: mip =   3.360000000e+02 >=   3.180000000e+02   5.4% (7280; 35123)
+1263705: mip =   3.360000000e+02 >=   3.180000000e+02   5.4% (7443; 36684)
+1302213: mip =   3.360000000e+02 >=   3.180000000e+02   5.4% (7621; 38005)
+1339725: mip =   3.360000000e+02 >=   3.180000000e+02   5.4% (7873; 39321)
+1383826: mip =   3.360000000e+02 >=   3.180000000e+02   5.4% (8130; 40133)
+1426857: mip =   3.360000000e+02 >=   3.180000000e+02   5.4% (8425; 40943)
+1469518: mip =   3.360000000e+02 >=   3.180000000e+02   5.4% (8701; 41826)
+1499664: mip =   3.360000000e+02 >=   3.180000000e+02   5.4% (8876; 43167)
Time used: 180.0 secs.  Memory used: 89.5 Mb.
+1537665: mip =   3.360000000e+02 >=   3.180000000e+02   5.4% (9145; 44095)
+1577882: mip =   3.360000000e+02 >=   3.180000000e+02   5.4% (9413; 44955)
+1608943: mip =   3.360000000e+02 >=   3.180000000e+02   5.4% (9589; 46155)
+1640434: mip =   3.360000000e+02 >=   3.180000000e+02   5.4% (9765; 47326)
+1679494: mip =   3.360000000e+02 >=   3.180000000e+02   5.4% (9960; 48071)
+1713450: mip =   3.360000000e+02 >=   3.180000000e+02   5.4% (10196; 49054)
+1736009: mip =   3.360000000e+02 >=   3.180000000e+02   5.4% (10353; 50445)
+1769436: mip =   3.360000000e+02 >=   3.180000000e+02   5.4% (10524; 51592)
+1797691: mip =   3.360000000e+02 >=   3.180000000e+02   5.4% (10724; 52744)
+1827389: mip =   3.360000000e+02 >=   3.180000000e+02   5.4% (10859; 53897)
+1860215: mip =   3.360000000e+02 >=   3.180000000e+02   5.4% (11033; 54890)
+1888355: mip =   3.360000000e+02 >=   3.180000000e+02   5.4% (11207; 55963)
Time used: 240.0 secs.  Memory used: 111.7 Mb.
+1926242: mip =   3.360000000e+02 >=   3.180000000e+02   5.4% (11391; 56719)
+1960675: mip =   3.360000000e+02 >=   3.180000000e+02   5.4% (11607; 57557)
+1988288: mip =   3.360000000e+02 >=   3.180000000e+02   5.4% (11851; 58519)
+2005823: mip =   3.360000000e+02 >=   3.190000000e+02   5.1% (11709; 60382)
+2031359: mip =   3.360000000e+02 >=   3.190000000e+02   5.1% (11691; 61485)
+2060853: mip =   3.360000000e+02 >=   3.200000000e+02   4.8% (11810; 62896)
+2090141: mip =   3.360000000e+02 >=   3.200000000e+02   4.8% (11959; 64048)
+2117936: mip =   3.360000000e+02 >=   3.200000000e+02   4.8% (12057; 65260)
+2145501: mip =   3.360000000e+02 >=   3.200000000e+02   4.8% (12185; 66370)
+2175482: mip =   3.360000000e+02 >=   3.200000000e+02   4.8% (12324; 67401)
+2201967: mip =   3.360000000e+02 >=   3.200000000e+02   4.8% (12438; 68539)
+2226843: mip =   3.360000000e+02 >=   3.200000000e+02   4.8% (12549; 69667)
Time used: 300.0 secs.  Memory used: 125.9 Mb.
+2253206: mip =   3.360000000e+02 >=   3.200000000e+02   4.8% (12727; 70691)
+2279983: mip =   3.360000000e+02 >=   3.200000000e+02   4.8% (12852; 71759)
+2309089: mip =   3.360000000e+02 >=   3.200000000e+02   4.8% (13010; 72688)
+2334869: mip =   3.360000000e+02 >=   3.200000000e+02   4.8% (13087; 73775)
+2357270: mip =   3.360000000e+02 >=   3.200000000e+02   4.8% (13201; 74826)
+2382402: mip =   3.360000000e+02 >=   3.200000000e+02   4.8% (13317; 75823)
+2403878: mip =   3.360000000e+02 >=   3.200000000e+02   4.8% (13447; 76922)
+2427199: mip =   3.360000000e+02 >=   3.200000000e+02   4.8% (13552; 77987)
+2451607: mip =   3.360000000e+02 >=   3.200000000e+02   4.8% (13680; 78932)
+2476366: mip =   3.360000000e+02 >=   3.200000000e+02   4.8% (13814; 79903)
+2498398: mip =   3.360000000e+02 >=   3.200000000e+02   4.8% (13912; 80923)
+2525357: mip =   3.360000000e+02 >=   3.200000000e+02   4.8% (14021; 81852)
Time used: 360.0 secs.  Memory used: 141.0 Mb.
+2552045: mip =   3.360000000e+02 >=   3.200000000e+02   4.8% (14147; 82827)
+2574545: mip =   3.360000000e+02 >=   3.200000000e+02   4.8% (14242; 83890)
+2600198: mip =   3.360000000e+02 >=   3.200000000e+02   4.8% (14408; 84748)
+2622936: mip =   3.360000000e+02 >=   3.200000000e+02   4.8% (14529; 85760)
+2647060: mip =   3.360000000e+02 >=   3.200000000e+02   4.8% (14659; 86680)
+2673342: mip =   3.360000000e+02 >=   3.200000000e+02   4.8% (14762; 87546)
+2697188: mip =   3.360000000e+02 >=   3.200000000e+02   4.8% (14908; 88449)
+2722969: mip =   3.360000000e+02 >=   3.200000000e+02   4.8% (14997; 89374)
+2743036: mip =   3.360000000e+02 >=   3.210000000e+02   4.5% (14985; 90490)
+2749938: mip =   3.360000000e+02 >=   3.210000000e+02   4.5% (14831; 92022)
+2756995: mip =   3.360000000e+02 >=   3.210000000e+02   4.5% (14696; 93841)
+2773155: mip =   3.360000000e+02 >=   3.210000000e+02   4.5% (14528; 95214)
Time used: 420.0 secs.  Memory used: 150.7 Mb.
+2799808: mip =   3.360000000e+02 >=   3.220000000e+02   4.2% (14487; 96250)
+2806346: mip =   3.360000000e+02 >=   3.220000000e+02   4.2% (14230; 98001)
+2815065: mip =   3.360000000e+02 >=   3.220000000e+02   4.2% (14130; 99467)
+2824744: mip =   3.360000000e+02 >=   3.220000000e+02   4.2% (14066; 100829)
+2834589: mip =   3.360000000e+02 >=   3.220000000e+02   4.2% (14037; 102283)
+2843963: mip =   3.360000000e+02 >=   3.220000000e+02   4.2% (14002; 103666)
+2854419: mip =   3.360000000e+02 >=   3.220000000e+02   4.2% (13965; 104995)
+2866989: mip =   3.360000000e+02 >=   3.220000000e+02   4.2% (13894; 106276)
+2886608: mip =   3.360000000e+02 >=   3.220000000e+02   4.2% (13888; 107487)
+2916397: mip =   3.360000000e+02 >=   3.220000000e+02   4.2% (13934; 108131)
+2935237: mip =   3.360000000e+02 >=   3.220000000e+02   4.2% (14061; 109220)
+2960604: mip =   3.360000000e+02 >=   3.220000000e+02   4.2% (14172; 110181)
Time used: 480.0 secs.  Memory used: 152.5 Mb.
+2983926: mip =   3.360000000e+02 >=   3.220000000e+02   4.2% (14225; 111210)
+3017131: mip =   3.360000000e+02 >=   3.220000000e+02   4.2% (14405; 111741)
+3047191: mip =   3.360000000e+02 >=   3.220000000e+02   4.2% (14537; 112446)
+3070401: mip =   3.360000000e+02 >=   3.220000000e+02   4.2% (14630; 113546)
+3095999: mip =   3.360000000e+02 >=   3.220000000e+02   4.2% (14745; 114369)
+3121115: mip =   3.360000000e+02 >=   3.220000000e+02   4.2% (14821; 115312)
+3146852: mip =   3.360000000e+02 >=   3.220000000e+02   4.2% (14955; 116103)
+3161551: mip =   3.360000000e+02 >=   3.220000000e+02   4.2% (15045; 117223)
+3181072: mip =   3.360000000e+02 >=   3.220000000e+02   4.2% (15165; 118186)
+3200118: mip =   3.360000000e+02 >=   3.220000000e+02   4.2% (15240; 119233)
+3229186: mip =   3.360000000e+02 >=   3.220000000e+02   4.2% (15388; 119983)
+3249452: mip =   3.360000000e+02 >=   3.220000000e+02   4.2% (15436; 121044)
Time used: 540.0 secs.  Memory used: 165.3 Mb.
+3269353: mip =   3.360000000e+02 >=   3.220000000e+02   4.2% (15533; 122019)
+3293912: mip =   3.360000000e+02 >=   3.220000000e+02   4.2% (15661; 122792)
+3311766: mip =   3.360000000e+02 >=   3.220000000e+02   4.2% (15718; 123859)
+3342482: mip =   3.360000000e+02 >=   3.220000000e+02   4.2% (15904; 124461)
+3361192: mip =   3.360000000e+02 >=   3.220000000e+02   4.2% (15994; 125411)
+3379818: mip =   3.360000000e+02 >=   3.220000000e+02   4.2% (16050; 126361)
+3406816: mip =   3.360000000e+02 >=   3.220000000e+02   4.2% (16189; 127074)
+3429161: mip =   3.360000000e+02 >=   3.220000000e+02   4.2% (16250; 128012)
+3455977: mip =   3.360000000e+02 >=   3.220000000e+02   4.2% (16397; 128691)
+3477968: mip =   3.360000000e+02 >=   3.220000000e+02   4.2% (16512; 129535)
+3496104: mip =   3.360000000e+02 >=   3.220000000e+02   4.2% (16564; 130543)
+3510017: mip =   3.360000000e+02 >=   3.220000000e+02   4.2% (16626; 131598)
Time used: 600.0 secs.  Memory used: 177.3 Mb.
+3540757: mip =   3.360000000e+02 >=   3.220000000e+02   4.2% (16777; 132110)
+3561243: mip =   3.360000000e+02 >=   3.220000000e+02   4.2% (16850; 133003)
+3581250: mip =   3.360000000e+02 >=   3.220000000e+02   4.2% (16906; 133947)
+3603648: mip =   3.360000000e+02 >=   3.220000000e+02   4.2% (17075; 134699)
+3634385: mip =   3.360000000e+02 >=   3.220000000e+02   4.2% (17259; 135170)
+3654500: mip =   3.360000000e+02 >=   3.220000000e+02   4.2% (17354; 136016)
+3673680: mip =   3.360000000e+02 >=   3.220000000e+02   4.2% (17409; 136915)
+3694169: mip =   3.360000000e+02 >=   3.220000000e+02   4.2% (17439; 137798)
+3721681: mip =   3.360000000e+02 >=   3.220000000e+02   4.2% (17576; 138403)
+3747488: mip =   3.360000000e+02 >=   3.220000000e+02   4.2% (17717; 139111)
+3767498: mip =   3.360000000e+02 >=   3.220000000e+02   4.2% (17783; 140008)
+3785488: mip =   3.360000000e+02 >=   3.220000000e+02   4.2% (17869; 140861)
Time used: 660.0 secs.  Memory used: 190.3 Mb.
+3820861: mip =   3.360000000e+02 >=   3.220000000e+02   4.2% (18063; 141194)
+3851252: mip =   3.360000000e+02 >=   3.220000000e+02   4.2% (18254; 141706)
+3870086: mip =   3.360000000e+02 >=   3.220000000e+02   4.2% (18365; 142523)
+3890006: mip =   3.360000000e+02 >=   3.220000000e+02   4.2% (18421; 143370)
+3910477: mip =   3.360000000e+02 >=   3.220000000e+02   4.2% (18489; 144217)
+3925521: mip =   3.360000000e+02 >=   3.220000000e+02   4.2% (18607; 145085)
+3959748: mip =   3.360000000e+02 >=   3.220000000e+02   4.2% (18781; 145402)
+3985701: mip =   3.360000000e+02 >=   3.220000000e+02   4.2% (18917; 146019)
+4004031: mip =   3.360000000e+02 >=   3.220000000e+02   4.2% (18996; 146844)
+4017366: mip =   3.360000000e+02 >=   3.220000000e+02   4.2% (19121; 147703)
+4044023: mip =   3.360000000e+02 >=   3.220000000e+02   4.2% (19255; 148246)
+4072559: mip =   3.360000000e+02 >=   3.220000000e+02   4.2% (19489; 148751)
Time used: 720.0 secs.  Memory used: 205.2 Mb.
+4086950: mip =   3.360000000e+02 >=   3.220000000e+02   4.2% (19592; 149567)
+4102685: mip =   3.360000000e+02 >=   3.220000000e+02   4.2% (19653; 150462)
+4114729: mip =   3.360000000e+02 >=   3.220000000e+02   4.2% (19730; 151348)
+4138742: mip =   3.360000000e+02 >=   3.220000000e+02   4.2% (19877; 151988)
+4158224: mip =   3.360000000e+02 >=   3.220000000e+02   4.2% (19973; 152746)
+4174050: mip =   3.360000000e+02 >=   3.220000000e+02   4.2% (19989; 153683)
+4189126: mip =   3.360000000e+02 >=   3.220000000e+02   4.2% (20072; 154530)
+4208977: mip =   3.360000000e+02 >=   3.220000000e+02   4.2% (20175; 155246)
+4227596: mip =   3.360000000e+02 >=   3.220000000e+02   4.2% (20236; 156067)
+4245030: mip =   3.360000000e+02 >=   3.220000000e+02   4.2% (20334; 156870)
+4269111: mip =   3.360000000e+02 >=   3.220000000e+02   4.2% (20387; 157550)
+4302914: mip =   3.360000000e+02 >=   3.220000000e+02   4.2% (20616; 157908)
Time used: 780.0 secs.  Memory used: 215.7 Mb.
+4322357: mip =   3.360000000e+02 >=   3.220000000e+02   4.2% (20705; 158724)
+4339999: mip =   3.360000000e+02 >=   3.220000000e+02   4.2% (20719; 159567)
+4356613: mip =   3.360000000e+02 >=   3.220000000e+02   4.2% (20811; 160341)
+4390558: mip =   3.360000000e+02 >=   3.220000000e+02   4.2% (21002; 160681)
+4425057: mip =   3.360000000e+02 >=   3.220000000e+02   4.2% (21141; 160953)
+4444175: mip =   3.360000000e+02 >=   3.220000000e+02   4.2% (21225; 161727)
+4461095: mip =   3.360000000e+02 >=   3.220000000e+02   4.2% (21265; 162561)
+4473619: mip =   3.360000000e+02 >=   3.220000000e+02   4.2% (21271; 163463)
+4501876: mip =   3.360000000e+02 >=   3.220000000e+02   4.2% (21401; 163899)
+4519362: mip =   3.360000000e+02 >=   3.220000000e+02   4.2% (21469; 164670)
+4537432: mip =   3.360000000e+02 >=   3.220000000e+02   4.2% (21539; 165425)
+4550525: mip =   3.360000000e+02 >=   3.220000000e+02   4.2% (21655; 166188)
Time used: 840.0 secs.  Memory used: 226.0 Mb.
+4573034: mip =   3.360000000e+02 >=   3.220000000e+02   4.2% (21736; 166796)
+4592482: mip =   3.360000000e+02 >=   3.220000000e+02   4.2% (21819; 167504)
+4607730: mip =   3.360000000e+02 >=   3.220000000e+02   4.2% (21927; 168254)
+4634288: mip =   3.360000000e+02 >=   3.220000000e+02   4.2% (22039; 168771)
+4667161: mip =   3.360000000e+02 >=   3.220000000e+02   4.2% (22168; 169103)
+4701345: mip =   3.360000000e+02 >=   3.220000000e+02   4.2% (22318; 169378)
+4719550: mip =   3.360000000e+02 >=   3.220000000e+02   4.2% (22423; 170072)
+4736159: mip =   3.360000000e+02 >=   3.220000000e+02   4.2% (22501; 170821)
+4765410: mip =   3.360000000e+02 >=   3.220000000e+02   4.2% (22688; 171214)
+4788908: mip =   3.360000000e+02 >=   3.220000000e+02   4.2% (22824; 171724)
+4824511: mip =   3.360000000e+02 >=   3.220000000e+02   4.2% (22955; 172000)
+4841204: mip =   3.360000000e+02 >=   3.230000000e+02   3.9% (22877; 172829)
Time used: 900.0 secs.  Memory used: 238.2 Mb.
+4851417: mip =   3.360000000e+02 >=   3.230000000e+02   3.9% (22710; 173742)
+4863603: mip =   3.360000000e+02 >=   3.230000000e+02   3.9% (22539; 174787)
+4875240: mip =   3.360000000e+02 >=   3.230000000e+02   3.9% (22302; 176135)
+4894478: mip =   3.360000000e+02 >=   3.230000000e+02   3.9% (22283; 176922)
+4921348: mip =   3.360000000e+02 >=   3.230000000e+02   3.9% (22389; 177377)
+4925983: mip =   3.360000000e+02 >=   3.240000000e+02   3.6% (22004; 178798)
+4940711: mip =   3.360000000e+02 >=   3.240000000e+02   3.6% (21905; 179583)
+4959286: mip =   3.360000000e+02 >=   3.240000000e+02   3.6% (21839; 180295)
+4978153: mip =   3.360000000e+02 >=   3.240000000e+02   3.6% (21715; 181378)
+4991955: mip =   3.360000000e+02 >=   3.250000000e+02   3.3% (21535; 182409)
+4998354: mip =   3.360000000e+02 >=   3.250000000e+02   3.3% (21353; 183651)
+5006091: mip =   3.360000000e+02 >=   3.250000000e+02   3.3% (21211; 184828)
Time used: 960.0 secs.  Memory used: 238.2 Mb.
+5013957: mip =   3.360000000e+02 >=   3.250000000e+02   3.3% (21110; 185925)
+5022840: mip =   3.360000000e+02 >=   3.250000000e+02   3.3% (21044; 187031)
+5030947: mip =   3.360000000e+02 >=   3.250000000e+02   3.3% (20990; 188156)
+5039757: mip =   3.360000000e+02 >=   3.250000000e+02   3.3% (20932; 189224)
+5048921: mip =   3.360000000e+02 >=   3.250000000e+02   3.3% (20847; 190289)
+5060234: mip =   3.360000000e+02 >=   3.250000000e+02   3.3% (20776; 191333)
+5070714: mip =   3.360000000e+02 >=   3.250000000e+02   3.3% (20701; 192405)
+5080678: mip =   3.360000000e+02 >=   3.250000000e+02   3.3% (20675; 193423)
+5092183: mip =   3.360000000e+02 >=   3.250000000e+02   3.3% (20641; 194475)
+5103490: mip =   3.360000000e+02 >=   3.250000000e+02   3.3% (20583; 195545)
+5116127: mip =   3.360000000e+02 >=   3.250000000e+02   3.3% (20582; 196528)
+5127770: mip =   3.360000000e+02 >=   3.250000000e+02   3.3% (20594; 197520)
Time used: 1020.0 secs.  Memory used: 238.2 Mb.
+5138504: mip =   3.360000000e+02 >=   3.250000000e+02   3.3% (20596; 198504)
+5153076: mip =   3.360000000e+02 >=   3.250000000e+02   3.3% (20647; 199349)
+5164784: mip =   3.360000000e+02 >=   3.250000000e+02   3.3% (20701; 200263)
+5176398: mip =   3.360000000e+02 >=   3.250000000e+02   3.3% (20713; 201250)
+5189779: mip =   3.360000000e+02 >=   3.250000000e+02   3.3% (20742; 202144)
+5208715: mip =   3.360000000e+02 >=   3.250000000e+02   3.3% (20821; 202929)
+5222393: mip =   3.360000000e+02 >=   3.250000000e+02   3.3% (20798; 203858)
+5239653: mip =   3.360000000e+02 >=   3.250000000e+02   3.3% (20879; 204631)
+5253171: mip =   3.360000000e+02 >=   3.250000000e+02   3.3% (20865; 205574)
+5267254: mip =   3.360000000e+02 >=   3.250000000e+02   3.3% (20918; 206481)
+5281257: mip =   3.360000000e+02 >=   3.250000000e+02   3.3% (20955; 207359)
+5295011: mip =   3.360000000e+02 >=   3.250000000e+02   3.3% (20992; 208243)
Time used: 1080.0 secs.  Memory used: 238.2 Mb.
+5310190: mip =   3.360000000e+02 >=   3.250000000e+02   3.3% (21060; 209102)
+5324055: mip =   3.360000000e+02 >=   3.250000000e+02   3.3% (21071; 209990)
+5338165: mip =   3.360000000e+02 >=   3.250000000e+02   3.3% (21129; 210852)
+5355355: mip =   3.360000000e+02 >=   3.250000000e+02   3.3% (21200; 211626)
+5370157: mip =   3.360000000e+02 >=   3.250000000e+02   3.3% (21192; 212481)
+5384295: mip =   3.360000000e+02 >=   3.250000000e+02   3.3% (21232; 213377)
+5399268: mip =   3.360000000e+02 >=   3.250000000e+02   3.3% (21294; 214213)
+5413790: mip =   3.360000000e+02 >=   3.250000000e+02   3.3% (21336; 215087)
+5429361: mip =   3.360000000e+02 >=   3.250000000e+02   3.3% (21382; 215907)
+5444469: mip =   3.360000000e+02 >=   3.250000000e+02   3.3% (21411; 216759)
+5460768: mip =   3.360000000e+02 >=   3.250000000e+02   3.3% (21472; 217547)
+5475885: mip =   3.360000000e+02 >=   3.250000000e+02   3.3% (21493; 218389)
Time used: 1140.0 secs.  Memory used: 239.2 Mb.
+5492307: mip =   3.360000000e+02 >=   3.250000000e+02   3.3% (21533; 219221)
+5508398: mip =   3.360000000e+02 >=   3.250000000e+02   3.3% (21571; 220009)
+5525774: mip =   3.360000000e+02 >=   3.250000000e+02   3.3% (21617; 220776)
+5538651: mip =   3.360000000e+02 >=   3.250000000e+02   3.3% (21684; 221584)
+5554796: mip =   3.360000000e+02 >=   3.250000000e+02   3.3% (21751; 222368)
+5571357: mip =   3.360000000e+02 >=   3.250000000e+02   3.3% (21789; 223164)
+5583464: mip =   3.360000000e+02 >=   3.250000000e+02   3.3% (21841; 224049)
+5597759: mip =   3.360000000e+02 >=   3.250000000e+02   3.3% (21865; 224868)
+5613961: mip =   3.360000000e+02 >=   3.250000000e+02   3.3% (21908; 225655)
+5624350: mip =   3.360000000e+02 >=   3.250000000e+02   3.3% (21991; 226457)
+5634483: mip =   3.360000000e+02 >=   3.250000000e+02   3.3% (22007; 227345)
+5646841: mip =   3.360000000e+02 >=   3.250000000e+02   3.3% (22069; 228132)
Time used: 1200.0 secs.  Memory used: 245.4 Mb.
+5664349: mip =   3.360000000e+02 >=   3.250000000e+02   3.3% (22161; 228839)
+5678923: mip =   3.360000000e+02 >=   3.250000000e+02   3.3% (22240; 229591)
+5693007: mip =   3.360000000e+02 >=   3.250000000e+02   3.3% (22257; 230430)
+5710535: mip =   3.360000000e+02 >=   3.250000000e+02   3.3% (22329; 231123)
+5724136: mip =   3.360000000e+02 >=   3.250000000e+02   3.3% (22353; 231936)
+5742331: mip =   3.360000000e+02 >=   3.250000000e+02   3.3% (22416; 232665)
+5756218: mip =   3.360000000e+02 >=   3.250000000e+02   3.3% (22484; 233438)
+5772751: mip =   3.360000000e+02 >=   3.250000000e+02   3.3% (22518; 234207)
+5788592: mip =   3.360000000e+02 >=   3.250000000e+02   3.3% (22570; 234977)
+5801691: mip =   3.360000000e+02 >=   3.250000000e+02   3.3% (22576; 235801)
+5818393: mip =   3.360000000e+02 >=   3.250000000e+02   3.3% (22644; 236506)
+5832457: mip =   3.360000000e+02 >=   3.250000000e+02   3.3% (22703; 237276)
Time used: 1260.1 secs.  Memory used: 252.5 Mb.
+5844915: mip =   3.360000000e+02 >=   3.250000000e+02   3.3% (22745; 238080)
+5860954: mip =   3.360000000e+02 >=   3.250000000e+02   3.3% (22801; 238844)
+5874637: mip =   3.360000000e+02 >=   3.250000000e+02   3.3% (22853; 239630)
+5890229: mip =   3.360000000e+02 >=   3.250000000e+02   3.3% (22904; 240364)
+5904612: mip =   3.360000000e+02 >=   3.250000000e+02   3.3% (22942; 241112)
+5917375: mip =   3.360000000e+02 >=   3.250000000e+02   3.3% (23006; 241838)
+5932697: mip =   3.360000000e+02 >=   3.250000000e+02   3.3% (23038; 242611)
+5950617: mip =   3.360000000e+02 >=   3.250000000e+02   3.3% (23080; 243345)
+5963852: mip =   3.360000000e+02 >=   3.250000000e+02   3.3% (23112; 244112)
+5978940: mip =   3.360000000e+02 >=   3.250000000e+02   3.3% (23162; 244902)
+5996007: mip =   3.360000000e+02 >=   3.250000000e+02   3.3% (23207; 245660)
+6010683: mip =   3.360000000e+02 >=   3.250000000e+02   3.3% (23305; 246358)
Time used: 1320.1 secs.  Memory used: 259.2 Mb.
+6024542: mip =   3.360000000e+02 >=   3.250000000e+02   3.3% (23329; 247155)
+6039518: mip =   3.360000000e+02 >=   3.250000000e+02   3.3% (23379; 247885)
+6054315: mip =   3.360000000e+02 >=   3.250000000e+02   3.3% (23390; 248640)
+6067614: mip =   3.360000000e+02 >=   3.250000000e+02   3.3% (23425; 249409)
+6086120: mip =   3.360000000e+02 >=   3.250000000e+02   3.3% (23479; 250079)
+6099916: mip =   3.360000000e+02 >=   3.250000000e+02   3.3% (23525; 250817)
+6115766: mip =   3.360000000e+02 >=   3.250000000e+02   3.3% (23529; 251565)
+6132548: mip =   3.360000000e+02 >=   3.250000000e+02   3.3% (23573; 252260)
+6145722: mip =   3.360000000e+02 >=   3.250000000e+02   3.3% (23613; 253062)
+6163236: mip =   3.360000000e+02 >=   3.250000000e+02   3.3% (23681; 253721)
+6177903: mip =   3.360000000e+02 >=   3.250000000e+02   3.3% (23735; 254431)
+6193173: mip =   3.360000000e+02 >=   3.250000000e+02   3.3% (23801; 255099)
Time used: 1380.1 secs.  Memory used: 266.4 Mb.
+6204642: mip =   3.360000000e+02 >=   3.250000000e+02   3.3% (23855; 255867)
+6218916: mip =   3.360000000e+02 >=   3.250000000e+02   3.3% (23875; 256601)
+6232967: mip =   3.360000000e+02 >=   3.250000000e+02   3.3% (23881; 257441)
+6245662: mip =   3.360000000e+02 >=   3.260000000e+02   3.0% (23719; 258411)
+6250165: mip =   3.360000000e+02 >=   3.260000000e+02   3.0% (23419; 259776)
+6255062: mip =   3.360000000e+02 >=   3.260000000e+02   3.0% (23301; 260949)
+6261029: mip =   3.360000000e+02 >=   3.260000000e+02   3.0% (23205; 262119)
+6266807: mip =   3.360000000e+02 >=   3.260000000e+02   3.0% (23129; 263236)
+6272225: mip =   3.360000000e+02 >=   3.260000000e+02   3.0% (22986; 264463)
+6279016: mip =   3.360000000e+02 >=   3.260000000e+02   3.0% (22921; 265691)
+6285156: mip =   3.360000000e+02 >=   3.260000000e+02   3.0% (22792; 267083)
+6297494: mip =   3.360000000e+02 >=   3.260000000e+02   3.0% (22742; 268181)
Time used: 1440.1 secs.  Memory used: 268.1 Mb.
+6311968: mip =   3.360000000e+02 >=   3.270000000e+02   2.7% (22546; 269595)
+6315787: mip =   3.360000000e+02 >=   3.270000000e+02   2.7% (22209; 271510)
+6320908: mip =   3.360000000e+02 >=   3.270000000e+02   2.7% (22012; 272992)
+6325829: mip =   3.360000000e+02 >=   3.270000000e+02   2.7% (21826; 274398)
+6331393: mip =   3.360000000e+02 >=   3.270000000e+02   2.7% (21700; 275698)
+6337397: mip =   3.360000000e+02 >=   3.270000000e+02   2.7% (21609; 276932)
+6343882: mip =   3.360000000e+02 >=   3.270000000e+02   2.7% (21524; 278144)
+6350495: mip =   3.360000000e+02 >=   3.270000000e+02   2.7% (21437; 279365)
+6356706: mip =   3.360000000e+02 >=   3.270000000e+02   2.7% (21349; 280569)
+6364180: mip =   3.360000000e+02 >=   3.270000000e+02   2.7% (21301; 281774)
+6370625: mip =   3.360000000e+02 >=   3.270000000e+02   2.7% (21220; 283035)
+6377732: mip =   3.360000000e+02 >=   3.270000000e+02   2.7% (21153; 284256)
Time used: 1500.1 secs.  Memory used: 268.1 Mb.
+6384711: mip =   3.360000000e+02 >=   3.270000000e+02   2.7% (21076; 285558)
+6392075: mip =   3.360000000e+02 >=   3.270000000e+02   2.7% (21022; 286813)
+6399501: mip =   3.360000000e+02 >=   3.270000000e+02   2.7% (20966; 288017)
+6408463: mip =   3.360000000e+02 >=   3.270000000e+02   2.7% (20914; 289119)
+6415855: mip =   3.360000000e+02 >=   3.270000000e+02   2.7% (20854; 290266)
+6423051: mip =   3.360000000e+02 >=   3.270000000e+02   2.7% (20762; 291615)
+6431640: mip =   3.360000000e+02 >=   3.270000000e+02   2.7% (20729; 292852)
+6439190: mip =   3.360000000e+02 >=   3.270000000e+02   2.7% (20669; 294057)
+6447983: mip =   3.360000000e+02 >=   3.270000000e+02   2.7% (20621; 295343)
+6456672: mip =   3.360000000e+02 >=   3.270000000e+02   2.7% (20571; 296494)
+6466246: mip =   3.360000000e+02 >=   3.270000000e+02   2.7% (20548; 297518)
+6474230: mip =   3.360000000e+02 >=   3.270000000e+02   2.7% (20503; 298687)
Time used: 1560.1 secs.  Memory used: 268.1 Mb.
+6483421: mip =   3.360000000e+02 >=   3.270000000e+02   2.7% (20505; 299752)
+6492265: mip =   3.360000000e+02 >=   3.270000000e+02   2.7% (20450; 300876)
+6500798: mip =   3.360000000e+02 >=   3.270000000e+02   2.7% (20397; 302035)
+6510477: mip =   3.360000000e+02 >=   3.270000000e+02   2.7% (20366; 303126)
+6521587: mip =   3.360000000e+02 >=   3.270000000e+02   2.7% (20355; 304166)
+6532295: mip =   3.360000000e+02 >=   3.270000000e+02   2.7% (20369; 305225)
+6544062: mip =   3.360000000e+02 >=   3.270000000e+02   2.7% (20347; 306216)
+6556765: mip =   3.360000000e+02 >=   3.270000000e+02   2.7% (20343; 307252)
+6568316: mip =   3.360000000e+02 >=   3.270000000e+02   2.7% (20341; 308277)
+6580088: mip =   3.360000000e+02 >=   3.270000000e+02   2.7% (20317; 309330)
+6591434: mip =   3.360000000e+02 >=   3.270000000e+02   2.7% (20307; 310378)
+6602325: mip =   3.360000000e+02 >=   3.270000000e+02   2.7% (20281; 311460)
Time used: 1620.1 secs.  Memory used: 268.1 Mb.
+6618644: mip =   3.360000000e+02 >=   3.270000000e+02   2.7% (20346; 312362)
+6631996: mip =   3.360000000e+02 >=   3.270000000e+02   2.7% (20355; 313388)
+6645488: mip =   3.360000000e+02 >=   3.270000000e+02   2.7% (20359; 314409)
+6659780: mip =   3.360000000e+02 >=   3.270000000e+02   2.7% (20393; 315384)
+6676290: mip =   3.360000000e+02 >=   3.270000000e+02   2.7% (20425; 316189)
+6692058: mip =   3.360000000e+02 >=   3.270000000e+02   2.7% (20451; 317101)
+6705969: mip =   3.360000000e+02 >=   3.270000000e+02   2.7% (20460; 318087)
+6720629: mip =   3.360000000e+02 >=   3.270000000e+02   2.7% (20467; 319022)
+6737183: mip =   3.360000000e+02 >=   3.270000000e+02   2.7% (20512; 319903)
+6751043: mip =   3.360000000e+02 >=   3.270000000e+02   2.7% (20521; 320848)
+6766542: mip =   3.360000000e+02 >=   3.270000000e+02   2.7% (20580; 321656)
+6782457: mip =   3.360000000e+02 >=   3.270000000e+02   2.7% (20638; 322444)
Time used: 1680.1 secs.  Memory used: 268.1 Mb.
+6799589: mip =   3.360000000e+02 >=   3.270000000e+02   2.7% (20661; 323323)
+6815126: mip =   3.360000000e+02 >=   3.270000000e+02   2.7% (20694; 324216)
+6831400: mip =   3.360000000e+02 >=   3.270000000e+02   2.7% (20723; 325108)
+6848468: mip =   3.360000000e+02 >=   3.270000000e+02   2.7% (20747; 325949)
+6862470: mip =   3.360000000e+02 >=   3.270000000e+02   2.7% (20771; 326846)
+6879012: mip =   3.360000000e+02 >=   3.270000000e+02   2.7% (20802; 327734)
+6892384: mip =   3.360000000e+02 >=   3.270000000e+02   2.7% (20825; 328629)
+6905363: mip =   3.360000000e+02 >=   3.270000000e+02   2.7% (20861; 329529)
+6919364: mip =   3.360000000e+02 >=   3.270000000e+02   2.7% (20902; 330381)
+6936452: mip =   3.360000000e+02 >=   3.270000000e+02   2.7% (20916; 331243)
+6950023: mip =   3.360000000e+02 >=   3.270000000e+02   2.7% (20990; 332102)
+6963229: mip =   3.360000000e+02 >=   3.270000000e+02   2.7% (21046; 332953)
Time used: 1740.1 secs.  Memory used: 268.1 Mb.
+6979340: mip =   3.360000000e+02 >=   3.270000000e+02   2.7% (21063; 333806)
+6995895: mip =   3.360000000e+02 >=   3.270000000e+02   2.7% (21094; 334649)
+7010998: mip =   3.360000000e+02 >=   3.270000000e+02   2.7% (21118; 335529)
+7027216: mip =   3.360000000e+02 >=   3.270000000e+02   2.7% (21180; 336324)
+7041552: mip =   3.360000000e+02 >=   3.270000000e+02   2.7% (21204; 337198)
+7055916: mip =   3.360000000e+02 >=   3.270000000e+02   2.7% (21265; 338026)
+7069040: mip =   3.360000000e+02 >=   3.270000000e+02   2.7% (21328; 338868)
+7082266: mip =   3.360000000e+02 >=   3.270000000e+02   2.7% (21369; 339682)
+7097816: mip =   3.360000000e+02 >=   3.270000000e+02   2.7% (21413; 340514)
+7109843: mip =   3.360000000e+02 >=   3.270000000e+02   2.7% (21428; 341406)
+7127753: mip =   3.360000000e+02 >=   3.270000000e+02   2.7% (21481; 342198)
+7142140: mip =   3.360000000e+02 >=   3.270000000e+02   2.7% (21501; 343056)
